# Generated by ConicBenchmarkUtilities.jl
VER
2

OBJSENSE
MIN

VAR
67 1
F 67

INT
20
12
13
14
15
16
17
18
19
20
21
42
44
46
48
49
50
52
54
55
56

CON
194 182
L= 1
L= 1
L= 1
L= 1
L= 1
L= 1
L= 1
L= 1
L= 1
EXP 3
L+ 1
EXP 3
L+ 1
L+ 1
L+ 1
L+ 1
L+ 1
EXP 3
L+ 1
EXP 3
L+ 1
L+ 1
L+ 1
L+ 1
L+ 1
L+ 1
L+ 1
L+ 1
L+ 1
L+ 1
L+ 1
L+ 1
L+ 1
EXP 3
L+ 1
EXP 3
L+ 1
L+ 1
L+ 1
L+ 1
L+ 1
L+ 1
L+ 1
L+ 1
L+ 1
L+ 1
L+ 1
L+ 1
L+ 1
L+ 1
L+ 1
L+ 1
L+ 1
L+ 1
L+ 1
L+ 1
L+ 1
L+ 1
L+ 1
L+ 1
L+ 1
L+ 1
L+ 1
L+ 1
L+ 1
L+ 1
L+ 1
L+ 1
L+ 1
L+ 1
L+ 1
L+ 1
L+ 1
L+ 1
L+ 1
L+ 1
L+ 1
L+ 1
L+ 1
L+ 1
L+ 1
L+ 1
L+ 1
L+ 1
L+ 1
L+ 1
L+ 1
L+ 1
L+ 1
L+ 1
L+ 1
L+ 1
L+ 1
L+ 1
L+ 1
L+ 1
L+ 1
L+ 1
L+ 1
L+ 1
L= 1
L= 1
L+ 1
L+ 1
L+ 1
L+ 1
L+ 1
L+ 1
L+ 1
L+ 1
L+ 1
L+ 1
L+ 1
L+ 1
L+ 1
L+ 1
L+ 1
L+ 1
L+ 1
L+ 1
L+ 1
L+ 1
L+ 1
L+ 1
L+ 1
L+ 1
L+ 1
L+ 1
L+ 1
L+ 1
L+ 1
L+ 1
L+ 1
L+ 1
L+ 1
L+ 1
L+ 1
L+ 1
L+ 1
L+ 1
L+ 1
L+ 1
L+ 1
L+ 1
L+ 1
L+ 1
L+ 1
L+ 1
L+ 1
L+ 1
L+ 1
L+ 1
L+ 1
L+ 1
L+ 1
L+ 1
L+ 1
L+ 1
L+ 1
L+ 1
L+ 1
L+ 1
L+ 1
L+ 1
L+ 1
L+ 1
L+ 1
L+ 1
L+ 1
L+ 1
L+ 1
L+ 1
L+ 1
L+ 1
L+ 1
L+ 1
L+ 1
L+ 1
L+ 1
L+ 1
L+ 1
L+ 1

OBJACOORD
1
22 -1.0

ACOORD
350
0 0 -1.0
1 0 1.0
120 0 1.0
121 0 -1.0
0 1 -1.0
2 1 1.0
122 1 1.0
123 1 -1.0
0 2 5.0
5 2 -1.0
134 2 1.0
0 3 10.0
6 3 -1.0
135 3 1.0
0 4 -2.0
57 4 0.5
59 4 -0.5
63 4 -1.0
144 4 1.0
145 4 -1.0
0 5 -1.0
58 5 0.5
60 5 -0.5
64 5 -1.0
146 5 1.0
147 5 -1.0
0 6 80.0
33 6 -1.0
35 6 1.0
39 6 -1.0
148 6 1.0
0 7 90.0
34 7 -1.0
36 7 1.0
40 7 -1.0
149 7 1.0
0 8 285.0
44 8 -1.0
51 8 -1.0
150 8 1.0
0 9 390.0
48 9 -1.0
52 9 -1.0
151 9 1.0
0 10 290.0
53 10 -1.0
55 10 1.0
57 10 -1.0
59 10 1.0
65 10 -1.0
152 10 1.0
0 11 405.0
54 11 -1.0
56 11 1.0
58 11 -1.0
60 11 1.0
66 11 -1.0
153 11 1.0
0 12 -5.0
67 12 -5.0
77 12 5.0
92 12 -1.0
93 12 -1.0
102 12 1.0
174 12 1.0
175 12 -1.0
0 13 -4.0
68 13 -4.0
78 13 4.0
92 13 -1.0
93 13 -1.0
103 13 1.0
176 13 1.0
177 13 -1.0
0 14 -8.0
69 14 -8.0
79 14 8.0
94 14 -1.0
95 14 -1.0
104 14 1.0
178 14 1.0
179 14 -1.0
0 15 -7.0
70 15 -7.0
80 15 7.0
94 15 -1.0
95 15 -1.0
105 15 1.0
180 15 1.0
181 15 -1.0
0 16 -6.0
71 16 -6.0
81 16 6.0
96 16 -1.0
97 16 -1.0
106 16 1.0
182 16 1.0
183 16 -1.0
0 17 -9.0
72 17 -9.0
82 17 9.0
96 17 -1.0
97 17 -1.0
107 17 1.0
184 17 1.0
185 17 -1.0
0 18 -10.0
73 18 -10.0
83 18 10.0
98 18 -1.0
99 18 -1.0
108 18 1.0
186 18 1.0
187 18 -1.0
0 19 -9.0
74 19 -9.0
84 19 9.0
98 19 -1.0
99 19 -1.0
109 19 1.0
188 19 1.0
189 19 -1.0
0 20 -6.0
75 20 -6.0
85 20 6.0
100 20 -1.0
101 20 -1.0
110 20 1.0
190 20 1.0
191 20 -1.0
0 21 -10.0
76 21 -10.0
86 21 10.0
100 21 -1.0
101 21 -1.0
111 21 1.0
192 21 1.0
193 21 -1.0
0 22 -1.0
1 23 -1.0
9 23 1.0
17 23 -1.0
124 23 1.0
1 24 -1.0
21 24 1.0
29 24 -1.0
126 24 1.0
2 25 -1.0
13 25 1.0
18 25 -1.0
125 25 1.0
2 26 -1.0
25 26 1.0
30 26 -1.0
127 26 1.0
3 27 -1.0
12 27 -1.0
19 27 -1.0
128 27 1.0
3 28 -1.0
24 28 -1.0
31 28 -1.0
130 28 1.0
3 29 1.0
5 29 1.0
132 29 1.0
4 30 -1.0
16 30 -1.0
20 30 -1.0
129 30 1.0
4 31 -1.0
28 31 -1.0
32 31 -1.0
131 31 1.0
4 32 1.0
6 32 1.0
133 32 1.0
5 33 -1.0
7 33 1.0
136 33 1.0
6 34 -1.0
8 34 1.0
137 34 1.0
7 35 -1.0
33 35 0.75
35 35 -0.75
37 35 -1.0
138 35 1.0
7 36 -1.0
41 36 1.0
49 36 -1.0
140 36 1.0
7 37 -1.0
53 37 1.0
55 37 -1.0
61 37 -1.0
142 37 1.0
8 38 -1.0
34 38 0.75
36 38 -0.75
38 38 -1.0
139 38 1.0
8 39 -1.0
45 39 1.0
50 39 -1.0
141 39 1.0
8 40 -1.0
54 40 1.0
56 40 -1.0
62 40 -1.0
143 40 1.0
11 41 1.0
12 41 1.0
12 42 -1.0
17 42 40.0
19 42 3.71357206670431
87 42 -1.0
102 42 -1.0
103 42 1.0
112 42 1.0
114 42 1.0
116 42 1.0
118 42 1.0
154 42 1.0
155 42 -1.0
15 43 1.0
16 43 1.0
16 44 -1.0
18 44 40.0
20 44 3.71357206670431
87 44 1.0
103 44 -1.0
113 44 1.0
115 44 1.0
117 44 1.0
119 44 1.0
156 44 1.0
157 44 -1.0
23 45 1.0
24 45 1.2
24 46 -1.0
29 46 40.0
31 46 4.45628648004517
88 46 -1.0
104 46 -1.0
105 46 1.0
112 46 1.0
114 46 1.0
116 46 1.0
118 46 1.0
158 46 1.0
159 46 -1.0
27 47 1.0
28 47 1.2
28 48 -1.0
30 48 40.0
32 48 4.45628648004517
88 48 1.0
105 48 -1.0
113 48 1.0
115 48 1.0
117 48 1.0
119 48 1.0
160 48 1.0
161 48 -1.0
33 49 -1.0
35 49 -1.0
37 49 4.45628648004517
39 49 3.34221486003388
89 49 -1.0
106 49 -1.0
107 49 1.0
114 49 -1.0
162 49 1.0
163 49 -1.0
34 50 -1.0
36 50 -1.0
38 50 4.45628648004517
40 50 3.34221486003388
89 50 1.0
107 50 -1.0
115 50 -1.0
164 50 1.0
165 50 -1.0
43 51 1.0
44 51 1.5
44 52 -1.0
49 52 4.45628648004517
51 52 2.54515263975353
90 52 -1.0
108 52 -1.0
109 52 1.0
116 52 -1.0
166 52 1.0
167 52 -1.0
47 53 1.0
48 53 1.5
48 54 -1.0
50 54 4.45628648004517
52 54 2.54515263975353
90 54 1.0
109 54 -1.0
117 54 -1.0
168 54 1.0
169 54 -1.0
53 55 -1.0
55 55 -1.0
57 55 -1.0
59 55 -1.0
61 55 4.45628648004517
63 55 30.0
65 55 15.0
91 55 -1.0
110 55 -1.0
111 55 1.0
118 55 -1.0
170 55 1.0
171 55 -1.0
54 56 -1.0
56 56 -1.0
58 56 -1.0
60 56 -1.0
62 56 4.45628648004517
64 56 30.0
66 56 15.0
91 56 1.0
111 56 -1.0
119 56 -1.0
172 56 1.0
173 56 -1.0
67 57 -1.0
77 57 1.0
68 58 -1.0
78 58 1.0
69 59 -1.0
79 59 1.0
70 60 -1.0
80 60 1.0
71 61 -1.0
81 61 1.0
72 62 -1.0
82 62 1.0
73 63 -1.0
83 63 1.0
74 64 -1.0
84 64 1.0
75 65 -1.0
85 65 1.0
76 66 -1.0
86 66 1.0

BCOORD
66
9 1.0
10 1.0
12 1.0
13 1.0
14 1.0
16 1.0
21 1.0
22 1.0
24 1.0
25 1.0
26 1.0
28 1.0
33 1.0
34 1.0
35 1.0
36 1.0
41 1.0
42 1.0
44 1.0
45 1.0
46 1.0
48 1.0
53 1.0
54 1.0
55 1.0
56 1.0
57 1.0
58 1.0
59 1.0
60 1.0
92 1.0
93 1.0
94 1.0
95 1.0
96 1.0
97 1.0
98 1.0
99 1.0
100 1.0
101 1.0
112 -1.0
113 -1.0
121 40.0
123 40.0
145 30.0
147 30.0
155 1.0
157 1.0
159 1.0
161 1.0
163 1.0
165 1.0
167 1.0
169 1.0
171 1.0
173 1.0
175 1.0
177 1.0
179 1.0
181 1.0
183 1.0
185 1.0
187 1.0
189 1.0
191 1.0
193 1.0
